10J3M/DAT/10J3MNLR-11.dat
10 3
25.6456 41.2084
28.8696 30.506
25.2734 14.2027
32.4884 36.3943
25.2138 11.0916
24.4679 8.4714
29.2281 22.6156
25.4586 34.6257
25.9347 25.476
31.2702 29.7273
84.773