10J3M/SOL/10J3MNLR-11.sol
solution status: optimal solution found
objective value:                     91.2834333333333
x#1#1                               0.262869862438558 	(obj:0)
x#1#2                               0.485221879265897 	(obj:0)
x#1#3                               0.251908258295544 	(obj:0)
x#2#2                                               1 	(obj:0)
x#3#2                                0.82070188840567 	(obj:0)
x#3#3                                0.17929811159433 	(obj:0)
x#4#3                                               1 	(obj:0)
x#5#1                                               1 	(obj:0)
x#6#1                               0.324297466851632 	(obj:0)
x#6#3                               0.675702533148369 	(obj:0)
x#7#2                                               1 	(obj:0)
x#8#1                                               1 	(obj:0)
x#9#1                                               1 	(obj:0)
x#10#3                                              1 	(obj:0)
z                                    91.2834333333333 	(obj:1)
